param set_len = 12;
param target_sum = 3284528621;
param values := [1] 978949984 [2] 477463625 [3] 342400905 [4] 261602407 [5] 322122234 [6] 231273804 [7] 1413168 [8] 595208396 [9] 690414316 [10] 127692947 [11] 448590662 [12] 787268953 ;
